job_count = 22 ;
duration = [|28, 8, 4|17, 14, 6|4, 16, 9|18, 15, 4|29, 9, 1|6, 5, 4|8, 7, 2|15, 11, 7|25, 4, 2|18, 2, 4|15, 12, 4|16, 18, 3|26, 3, 5|16, 5, 7|16, 5, 6|7, 18, 2|20, 5, 4|28, 10, 9|15, 12, 3|15, 7, 1|18, 3, 3|17, 2, 3|] ;
machine_count = 3 ;
cost = [|17, 37, 31|14, 30, 39|18, 27, 40|14, 26, 45|15, 36, 34|11, 35, 49|13, 30, 40|19, 20, 52|12, 33, 51|19, 24, 37|10, 34, 32|15, 23, 56|19, 28, 52|17, 33, 57|17, 28, 45|18, 38, 43|15, 33, 34|14, 27, 56|10, 31, 30|15, 21, 30|17, 29, 34|13, 37, 52|] ;
deadline = [49, 49, 49, 49, 49, 49, 49, 49, 49, 49, 49, 49, 49, 49, 49, 49, 49, 49, 49, 49, 49, 49] ;
release = [0, 0, 0, 0, 0, 0, 0, 0, 0, 0, 0, 0, 0, 0, 0, 0, 0, 0, 0, 0, 0, 0] ;
resource = [|7, 7, 7|2, 2, 2|8, 8, 8|7, 7, 7|9, 9, 9|9, 9, 9|7, 7, 7|3, 3, 3|7, 7, 7|4, 4, 4|5, 5, 5|7, 7, 7|4, 4, 4|1, 1, 1|4, 4, 4|7, 7, 7|6, 6, 6|9, 9, 9|3, 3, 3|6, 6, 6|4, 4, 4|9, 9, 9|] ;
capacities = [10, 10, 10] ;
